
******************************************************************************
This program contains Ipopt, a library for large-scale nonlinear optimization.
 Ipopt is released as open source code under the Eclipse Public License (EPL).
         For more information visit http://projects.coin-or.org/Ipopt

This version of Ipopt was compiled from source code available at
    https://github.com/IDAES/Ipopt as part of the Institute for the Design of
    Advanced Energy Systems Process Systems Engineering Framework (IDAES PSE
    Framework) Copyright (c) 2018-2019. See https://github.com/IDAES/idaes-pse.

This version of Ipopt was compiled using HSL, a collection of Fortran codes
    for large-scale scientific computation.  All technical papers, sales and
    publicity material resulting from use of the HSL codes within IPOPT must
    contain the following acknowledgement:
        HSL, a collection of Fortran codes for large-scale scientific
        computation. See http://www.hsl.rl.ac.uk.
******************************************************************************

This is Ipopt version 3.13.2, running with linear solver ma27.

Number of nonzeros in equality constraint Jacobian...:      808
Number of nonzeros in inequality constraint Jacobian.:        0
Number of nonzeros in Lagrangian Hessian.............:      702

Total number of variables............................:      351
                     variables with only lower bounds:      108
                variables with lower and upper bounds:      189
                     variables with only upper bounds:        0
Total number of equality constraints.................:      350
Total number of inequality constraints...............:        0
        inequality constraints with only lower bounds:        0
   inequality constraints with lower and upper bounds:        0
        inequality constraints with only upper bounds:        0

iter    objective    inf_pr   inf_du lg(mu)  ||d||  lg(rg) alpha_du alpha_pr  ls
   0  0.0000000e+00 2.32e-01 5.29e-23  -1.0 0.00e+00    -  0.00e+00 0.00e+00   0
   1  2.4997113e-01 1.28e-01 1.00e+05  -1.0 5.72e+04    -  3.77e-02 4.95e-01h  2
   2  4.9387125e-01 4.68e-02 3.21e+04  -1.0 3.56e+04    -  4.15e-01 4.95e-01h  2
   3  8.8975147e-01 6.11e-04 3.12e+02  -1.0 1.72e+04    -  9.64e-01 9.90e-01h  1
   4  8.9791162e-01 6.29e-06 4.08e+00  -1.0 3.59e+02    -  9.89e-01 9.90e-01h  1
   5  8.9271540e-01 5.16e-06 9.05e+02  -1.0 2.76e+03    -  9.88e-01 9.90e-01h  1
   6  8.8923992e-01 8.76e-07 1.43e+03  -1.0 9.66e+03    -  9.90e-01 9.90e-01H  1
   7  8.8779999e-01 1.61e-08 1.16e+04  -2.5 3.25e+03    -  9.97e-01 9.97e-01H  1
   8  8.8779929e-01 3.61e-10 1.11e+08  -2.5 2.18e+01    -  1.00e+00 9.97e-01h  1
In iteration 8, 27 Slacks too small, adjusting variable bounds
   9  8.8779929e-01 1.04e-12 3.92e+10  -2.5 6.20e-02    -  1.00e+00 9.97e-01h  1
iter    objective    inf_pr   inf_du lg(mu)  ||d||  lg(rg) alpha_du alpha_pr  ls
  10  8.8779929e-01 2.65e-13 2.29e-05  -2.5 1.75e-04    -  1.00e+00 1.00e+00h  1
  11  8.8779780e-01 2.91e-13 6.91e+05  -9.0 1.08e+02    -  1.00e+00 1.00e+00F  1
  12  8.8779780e-01 2.44e-13 7.82e-11  -9.0 1.22e-02    -  1.00e+00 1.00e+00h  1

Number of Iterations....: 12

                                   (scaled)                 (unscaled)
Objective...............:   8.8779779742366494e-01    8.8779779742366494e-01
Dual infeasibility......:   7.8216544352471828e-11    7.8216544352471828e-11
Constraint violation....:   2.4380497620768438e-13    2.4380497620768438e-13
Complementarity.........:   9.0909634022463633e-10    9.0909634022463633e-10
Overall NLP error.......:   1.2934308025826937e-10    9.0909634022463633e-10


Number of objective function evaluations             = 22
Number of objective gradient evaluations             = 13
Number of equality constraint evaluations            = 22
Number of inequality constraint evaluations          = 0
Number of equality constraint Jacobian evaluations   = 13
Number of inequality constraint Jacobian evaluations = 0
Number of Lagrangian Hessian evaluations             = 12
Total CPU secs in IPOPT (w/o function evaluations)   =      0.021
Total CPU secs in NLP function evaluations           =      0.197

EXIT: Optimal Solution Found.
